water_flow/jikken/makedata/WFModel_C4_T3_M0.05_R1.00.lp
\* Problem: WFmodel_120205 *\

Maximize
 Objective: + 10 WG(1) + 10 WG(2) + 10 WG(3) + 10 BG(1) + 10 BG(2)
 + 10 BG(3)

Subject To
 C1_1(0): + WB(0) + WG(0) - AVE(0) = -0
 C1_1(1): + WB(1) + WG(1) - AVE(1) = -0
 C1_1(2): + WB(2) + WG(2) - AVE(2) = -0
 C1_1(3): + WB(3) + WG(3) - AVE(3) = -0
 C1_2(0): + AVE(0) = -0
 C1_2(1): + AVE(1) = 3248.33172520918
 C1_2(2): + AVE(2) = 3315.65537776224
 C1_2(3): + AVE(3) = 3315.65799770399
 C2_1_1_1(0,0): - 0.98 WG(0) - 0.98 BG(0) + 1000000 d11(0,0) <= 1000000
 C2_1_1_1(1,1): - 0.98 WG(1) - 0.98 BG(1) + 1000000 d11(1,1)
 <= 997380.05826
 C2_1_1_1(1,2): - 0.98 WG(1) - 0.98 BG(1) + 1000000 d11(1,2)
 <= 995887.633351
 C2_1_1_1(2,3): - 0.98 WG(2) - 0.98 BG(2) + 1000000 d11(2,3)
 <= 997380.05826
 C2_1_1_1(2,4): - 0.98 WG(2) - 0.98 BG(2) + 1000000 d11(2,4)
 <= 995887.633351
 C2_1_1_1(2,5): - 0.98 WG(2) - 0.98 BG(2) + 1000000 d11(2,5)
 <= 997380.05826
 C2_1_1_1(2,6): - 0.98 WG(2) - 0.98 BG(2) + 1000000 d11(2,6)
 <= 995887.633351
 C2_1_1_1(3,7): - 0.98 WG(3) - 0.98 BG(3) + 1000000 d11(3,7)
 <= 997380.05826
 C2_1_1_1(3,8): - 0.98 WG(3) - 0.98 BG(3) + 1000000 d11(3,8)
 <= 995887.633351
 C2_1_1_1(3,9): - 0.98 WG(3) - 0.98 BG(3) + 1000000 d11(3,9)
 <= 997380.05826
 C2_1_1_1(3,10): - 0.98 WG(3) - 0.98 BG(3) + 1000000 d11(3,10)
 <= 995887.633351
 C2_1_1_1(3,11): - 0.98 WG(3) - 0.98 BG(3) + 1000000 d11(3,11)
 <= 997380.05826
 C2_1_1_1(3,12): - 0.98 WG(3) - 0.98 BG(3) + 1000000 d11(3,12)
 <= 995887.633351
 C2_1_1_1(3,13): - 0.98 WG(3) - 0.98 BG(3) + 1000000 d11(3,13)
 <= 997380.05826
 C2_1_1_1(3,14): - 0.98 WG(3) - 0.98 BG(3) + 1000000 d11(3,14)
 <= 995887.633351
 C2_1_1_2(0,0): + 0.98 WG(0) + 0.98 BG(0) - 1000000 d11(0,0) <= -0
 C2_1_1_2(1,1): + 0.98 WG(1) + 0.98 BG(1) - 1000000 d11(1,1)
 <= 2619.94174
 C2_1_1_2(1,2): + 0.98 WG(1) + 0.98 BG(1) - 1000000 d11(1,2)
 <= 4112.366649
 C2_1_1_2(2,3): + 0.98 WG(2) + 0.98 BG(2) - 1000000 d11(2,3)
 <= 2619.94174
 C2_1_1_2(2,4): + 0.98 WG(2) + 0.98 BG(2) - 1000000 d11(2,4)
 <= 4112.366649
 C2_1_1_2(2,5): + 0.98 WG(2) + 0.98 BG(2) - 1000000 d11(2,5)
 <= 2619.94174
 C2_1_1_2(2,6): + 0.98 WG(2) + 0.98 BG(2) - 1000000 d11(2,6)
 <= 4112.366649
 C2_1_1_2(3,7): + 0.98 WG(3) + 0.98 BG(3) - 1000000 d11(3,7)
 <= 2619.94174
 C2_1_1_2(3,8): + 0.98 WG(3) + 0.98 BG(3) - 1000000 d11(3,8)
 <= 4112.366649
 C2_1_1_2(3,9): + 0.98 WG(3) + 0.98 BG(3) - 1000000 d11(3,9)
 <= 2619.94174
 C2_1_1_2(3,10): + 0.98 WG(3) + 0.98 BG(3) - 1000000 d11(3,10)
 <= 4112.366649
 C2_1_1_2(3,11): + 0.98 WG(3) + 0.98 BG(3) - 1000000 d11(3,11)
 <= 2619.94174
 C2_1_1_2(3,12): + 0.98 WG(3) + 0.98 BG(3) - 1000000 d11(3,12)
 <= 4112.366649
 C2_1_1_2(3,13): + 0.98 WG(3) + 0.98 BG(3) - 1000000 d11(3,13)
 <= 2619.94174
 C2_1_1_2(3,14): + 0.98 WG(3) + 0.98 BG(3) - 1000000 d11(3,14)
 <= 4112.366649
 C2_1_2_1(0,0): + 0.98 WG(0) + 0.98 BG(0) + 1000000 d11(0,0) - y1(0,0)
 <= 1000000
 C2_1_2_1(1,1): + 0.98 WG(1) + 0.98 BG(1) + 1000000 d11(1,1) - y1(1,1)
 <= 1002619.94174
 C2_1_2_1(1,2): + 0.98 WG(1) + 0.98 BG(1) + 1000000 d11(1,2) - y1(1,2)
 <= 1004112.366649
 C2_1_2_1(2,3): + 0.98 WG(2) + 0.98 BG(2) + 1000000 d11(2,3) - y1(2,3)
 <= 1002619.94174
 C2_1_2_1(2,4): + 0.98 WG(2) + 0.98 BG(2) + 1000000 d11(2,4) - y1(2,4)
 <= 1004112.366649
 C2_1_2_1(2,5): + 0.98 WG(2) + 0.98 BG(2) + 1000000 d11(2,5) - y1(2,5)
 <= 1002619.94174
 C2_1_2_1(2,6): + 0.98 WG(2) + 0.98 BG(2) + 1000000 d11(2,6) - y1(2,6)
 <= 1004112.366649
 C2_1_2_1(3,7): + 0.98 WG(3) + 0.98 BG(3) + 1000000 d11(3,7) - y1(3,7)
 <= 1002619.94174
 C2_1_2_1(3,8): + 0.98 WG(3) + 0.98 BG(3) + 1000000 d11(3,8) - y1(3,8)
 <= 1004112.366649
 C2_1_2_1(3,9): + 0.98 WG(3) + 0.98 BG(3) + 1000000 d11(3,9) - y1(3,9)
 <= 1002619.94174
 C2_1_2_1(3,10): + 0.98 WG(3) + 0.98 BG(3) + 1000000 d11(3,10)
 - y1(3,10) <= 1004112.366649
 C2_1_2_1(3,11): + 0.98 WG(3) + 0.98 BG(3) + 1000000 d11(3,11)
 - y1(3,11) <= 1002619.94174
 C2_1_2_1(3,12): + 0.98 WG(3) + 0.98 BG(3) + 1000000 d11(3,12)
 - y1(3,12) <= 1004112.366649
 C2_1_2_1(3,13): + 0.98 WG(3) + 0.98 BG(3) + 1000000 d11(3,13)
 - y1(3,13) <= 1002619.94174
 C2_1_2_1(3,14): + 0.98 WG(3) + 0.98 BG(3) + 1000000 d11(3,14)
 - y1(3,14) <= 1004112.366649
 C2_1_2_2(0,0): - 0.98 WG(0) - 0.98 BG(0) + 1000000 d11(0,0) + y1(0,0)
 <= 1000000
 C2_1_2_2(1,1): - 0.98 WG(1) - 0.98 BG(1) + 1000000 d11(1,1) + y1(1,1)
 <= 997380.05826
 C2_1_2_2(1,2): - 0.98 WG(1) - 0.98 BG(1) + 1000000 d11(1,2) + y1(1,2)
 <= 995887.633351
 C2_1_2_2(2,3): - 0.98 WG(2) - 0.98 BG(2) + 1000000 d11(2,3) + y1(2,3)
 <= 997380.05826
 C2_1_2_2(2,4): - 0.98 WG(2) - 0.98 BG(2) + 1000000 d11(2,4) + y1(2,4)
 <= 995887.633351
 C2_1_2_2(2,5): - 0.98 WG(2) - 0.98 BG(2) + 1000000 d11(2,5) + y1(2,5)
 <= 997380.05826
 C2_1_2_2(2,6): - 0.98 WG(2) - 0.98 BG(2) + 1000000 d11(2,6) + y1(2,6)
 <= 995887.633351
 C2_1_2_2(3,7): - 0.98 WG(3) - 0.98 BG(3) + 1000000 d11(3,7) + y1(3,7)
 <= 997380.05826
 C2_1_2_2(3,8): - 0.98 WG(3) - 0.98 BG(3) + 1000000 d11(3,8) + y1(3,8)
 <= 995887.633351
 C2_1_2_2(3,9): - 0.98 WG(3) - 0.98 BG(3) + 1000000 d11(3,9) + y1(3,9)
 <= 997380.05826
 C2_1_2_2(3,10): - 0.98 WG(3) - 0.98 BG(3) + 1000000 d11(3,10)
 + y1(3,10) <= 995887.633351
 C2_1_2_2(3,11): - 0.98 WG(3) - 0.98 BG(3) + 1000000 d11(3,11)
 + y1(3,11) <= 997380.05826
 C2_1_2_2(3,12): - 0.98 WG(3) - 0.98 BG(3) + 1000000 d11(3,12)
 + y1(3,12) <= 995887.633351
 C2_1_2_2(3,13): - 0.98 WG(3) - 0.98 BG(3) + 1000000 d11(3,13)
 + y1(3,13) <= 997380.05826
 C2_1_2_2(3,14): - 0.98 WG(3) - 0.98 BG(3) + 1000000 d11(3,14)
 + y1(3,14) <= 995887.633351
 C2_1_3_1(0,0): - 1000000 d11(0,0) - y1(0,0) <= -0
 C2_1_3_1(1,1): - 1000000 d11(1,1) - y1(1,1) <= -0
 C2_1_3_1(1,2): - 1000000 d11(1,2) - y1(1,2) <= -0
 C2_1_3_1(2,3): - 1000000 d11(2,3) - y1(2,3) <= -0
 C2_1_3_1(2,4): - 1000000 d11(2,4) - y1(2,4) <= -0
 C2_1_3_1(2,5): - 1000000 d11(2,5) - y1(2,5) <= -0
 C2_1_3_1(2,6): - 1000000 d11(2,6) - y1(2,6) <= -0
 C2_1_3_1(3,7): - 1000000 d11(3,7) - y1(3,7) <= -0
 C2_1_3_1(3,8): - 1000000 d11(3,8) - y1(3,8) <= -0
 C2_1_3_1(3,9): - 1000000 d11(3,9) - y1(3,9) <= -0
 C2_1_3_1(3,10): - 1000000 d11(3,10) - y1(3,10) <= -0
 C2_1_3_1(3,11): - 1000000 d11(3,11) - y1(3,11) <= -0
 C2_1_3_1(3,12): - 1000000 d11(3,12) - y1(3,12) <= -0
 C2_1_3_1(3,13): - 1000000 d11(3,13) - y1(3,13) <= -0
 C2_1_3_1(3,14): - 1000000 d11(3,14) - y1(3,14) <= -0
 C2_1_3_2(0,0): - 1000000 d11(0,0) + y1(0,0) <= -0
 C2_1_3_2(1,1): - 1000000 d11(1,1) + y1(1,1) <= -0
 C2_1_3_2(1,2): - 1000000 d11(1,2) + y1(1,2) <= -0
 C2_1_3_2(2,3): - 1000000 d11(2,3) + y1(2,3) <= -0
 C2_1_3_2(2,4): - 1000000 d11(2,4) + y1(2,4) <= -0
 C2_1_3_2(2,5): - 1000000 d11(2,5) + y1(2,5) <= -0
 C2_1_3_2(2,6): - 1000000 d11(2,6) + y1(2,6) <= -0
 C2_1_3_2(3,7): - 1000000 d11(3,7) + y1(3,7) <= -0
 C2_1_3_2(3,8): - 1000000 d11(3,8) + y1(3,8) <= -0
 C2_1_3_2(3,9): - 1000000 d11(3,9) + y1(3,9) <= -0
 C2_1_3_2(3,10): - 1000000 d11(3,10) + y1(3,10) <= -0
 C2_1_3_2(3,11): - 1000000 d11(3,11) + y1(3,11) <= -0
 C2_1_3_2(3,12): - 1000000 d11(3,12) + y1(3,12) <= -0
 C2_1_3_2(3,13): - 1000000 d11(3,13) + y1(3,13) <= -0
 C2_1_3_2(3,14): - 1000000 d11(3,14) + y1(3,14) <= -0
 C2_2_1_1(0,0): + 1.02 WG(0) + 1.02 BG(0) + 1000000 d12(0,0) <= 1000000
 C2_2_1_1(1,1): + 1.02 WG(1) + 1.02 BG(1) + 1000000 d12(1,1)
 <= 1002619.94174
 C2_2_1_1(1,2): + 1.02 WG(1) + 1.02 BG(1) + 1000000 d12(1,2)
 <= 1004112.366649
 C2_2_1_1(2,3): + 1.02 WG(2) + 1.02 BG(2) + 1000000 d12(2,3)
 <= 1002619.94174
 C2_2_1_1(2,4): + 1.02 WG(2) + 1.02 BG(2) + 1000000 d12(2,4)
 <= 1004112.366649
 C2_2_1_1(2,5): + 1.02 WG(2) + 1.02 BG(2) + 1000000 d12(2,5)
 <= 1002619.94174
 C2_2_1_1(2,6): + 1.02 WG(2) + 1.02 BG(2) + 1000000 d12(2,6)
 <= 1004112.366649
 C2_2_1_1(3,7): + 1.02 WG(3) + 1.02 BG(3) + 1000000 d12(3,7)
 <= 1002619.94174
 C2_2_1_1(3,8): + 1.02 WG(3) + 1.02 BG(3) + 1000000 d12(3,8)
 <= 1004112.366649
 C2_2_1_1(3,9): + 1.02 WG(3) + 1.02 BG(3) + 1000000 d12(3,9)
 <= 1002619.94174
 C2_2_1_1(3,10): + 1.02 WG(3) + 1.02 BG(3) + 1000000 d12(3,10)
 <= 1004112.366649
 C2_2_1_1(3,11): + 1.02 WG(3) + 1.02 BG(3) + 1000000 d12(3,11)
 <= 1002619.94174
 C2_2_1_1(3,12): + 1.02 WG(3) + 1.02 BG(3) + 1000000 d12(3,12)
 <= 1004112.366649
 C2_2_1_1(3,13): + 1.02 WG(3) + 1.02 BG(3) + 1000000 d12(3,13)
 <= 1002619.94174
 C2_2_1_1(3,14): + 1.02 WG(3) + 1.02 BG(3) + 1000000 d12(3,14)
 <= 1004112.366649
 C2_2_1_2(0,0): - 1.02 WG(0) - 1.02 BG(0) - 1000000 d12(0,0) <= -0
 C2_2_1_2(1,1): - 1.02 WG(1) - 1.02 BG(1) - 1000000 d12(1,1)
 <= -2619.94174
 C2_2_1_2(1,2): - 1.02 WG(1) - 1.02 BG(1) - 1000000 d12(1,2)
 <= -4112.366649
 C2_2_1_2(2,3): - 1.02 WG(2) - 1.02 BG(2) - 1000000 d12(2,3)
 <= -2619.94174
 C2_2_1_2(2,4): - 1.02 WG(2) - 1.02 BG(2) - 1000000 d12(2,4)
 <= -4112.366649
 C2_2_1_2(2,5): - 1.02 WG(2) - 1.02 BG(2) - 1000000 d12(2,5)
 <= -2619.94174
 C2_2_1_2(2,6): - 1.02 WG(2) - 1.02 BG(2) - 1000000 d12(2,6)
 <= -4112.366649
 C2_2_1_2(3,7): - 1.02 WG(3) - 1.02 BG(3) - 1000000 d12(3,7)
 <= -2619.94174
 C2_2_1_2(3,8): - 1.02 WG(3) - 1.02 BG(3) - 1000000 d12(3,8)
 <= -4112.366649
 C2_2_1_2(3,9): - 1.02 WG(3) - 1.02 BG(3) - 1000000 d12(3,9)
 <= -2619.94174
 C2_2_1_2(3,10): - 1.02 WG(3) - 1.02 BG(3) - 1000000 d12(3,10)
 <= -4112.366649
 C2_2_1_2(3,11): - 1.02 WG(3) - 1.02 BG(3) - 1000000 d12(3,11)
 <= -2619.94174
 C2_2_1_2(3,12): - 1.02 WG(3) - 1.02 BG(3) - 1000000 d12(3,12)
 <= -4112.366649
 C2_2_1_2(3,13): - 1.02 WG(3) - 1.02 BG(3) - 1000000 d12(3,13)
 <= -2619.94174
 C2_2_1_2(3,14): - 1.02 WG(3) - 1.02 BG(3) - 1000000 d12(3,14)
 <= -4112.366649
 C2_2_2_1(0,0): - 1.02 WG(0) - 1.02 BG(0) + 1000000 d12(0,0) - y2(0,0)
 <= 1000000
 C2_2_2_1(1,1): - 1.02 WG(1) - 1.02 BG(1) + 1000000 d12(1,1) - y2(1,1)
 <= 997380.05826
 C2_2_2_1(1,2): - 1.02 WG(1) - 1.02 BG(1) + 1000000 d12(1,2) - y2(1,2)
 <= 995887.633351
 C2_2_2_1(2,3): - 1.02 WG(2) - 1.02 BG(2) + 1000000 d12(2,3) - y2(2,3)
 <= 997380.05826
 C2_2_2_1(2,4): - 1.02 WG(2) - 1.02 BG(2) + 1000000 d12(2,4) - y2(2,4)
 <= 995887.633351
 C2_2_2_1(2,5): - 1.02 WG(2) - 1.02 BG(2) + 1000000 d12(2,5) - y2(2,5)
 <= 997380.05826
 C2_2_2_1(2,6): - 1.02 WG(2) - 1.02 BG(2) + 1000000 d12(2,6) - y2(2,6)
 <= 995887.633351
 C2_2_2_1(3,7): - 1.02 WG(3) - 1.02 BG(3) + 1000000 d12(3,7) - y2(3,7)
 <= 997380.05826
 C2_2_2_1(3,8): - 1.02 WG(3) - 1.02 BG(3) + 1000000 d12(3,8) - y2(3,8)
 <= 995887.633351
 C2_2_2_1(3,9): - 1.02 WG(3) - 1.02 BG(3) + 1000000 d12(3,9) - y2(3,9)
 <= 997380.05826
 C2_2_2_1(3,10): - 1.02 WG(3) - 1.02 BG(3) + 1000000 d12(3,10)
 - y2(3,10) <= 995887.633351
 C2_2_2_1(3,11): - 1.02 WG(3) - 1.02 BG(3) + 1000000 d12(3,11)
 - y2(3,11) <= 997380.05826
 C2_2_2_1(3,12): - 1.02 WG(3) - 1.02 BG(3) + 1000000 d12(3,12)
 - y2(3,12) <= 995887.633351
 C2_2_2_1(3,13): - 1.02 WG(3) - 1.02 BG(3) + 1000000 d12(3,13)
 - y2(3,13) <= 997380.05826
 C2_2_2_1(3,14): - 1.02 WG(3) - 1.02 BG(3) + 1000000 d12(3,14)
 - y2(3,14) <= 995887.633351
 C2_2_2_2(0,0): + 1.02 WG(0) + 1.02 BG(0) + 1000000 d12(0,0) + y2(0,0)
 <= 1000000
 C2_2_2_2(1,1): + 1.02 WG(1) + 1.02 BG(1) + 1000000 d12(1,1) + y2(1,1)
 <= 1002619.94174
 C2_2_2_2(1,2): + 1.02 WG(1) + 1.02 BG(1) + 1000000 d12(1,2) + y2(1,2)
 <= 1004112.366649
 C2_2_2_2(2,3): + 1.02 WG(2) + 1.02 BG(2) + 1000000 d12(2,3) + y2(2,3)
 <= 1002619.94174
 C2_2_2_2(2,4): + 1.02 WG(2) + 1.02 BG(2) + 1000000 d12(2,4) + y2(2,4)
 <= 1004112.366649
 C2_2_2_2(2,5): + 1.02 WG(2) + 1.02 BG(2) + 1000000 d12(2,5) + y2(2,5)
 <= 1002619.94174
 C2_2_2_2(2,6): + 1.02 WG(2) + 1.02 BG(2) + 1000000 d12(2,6) + y2(2,6)
 <= 1004112.366649
 C2_2_2_2(3,7): + 1.02 WG(3) + 1.02 BG(3) + 1000000 d12(3,7) + y2(3,7)
 <= 1002619.94174
 C2_2_2_2(3,8): + 1.02 WG(3) + 1.02 BG(3) + 1000000 d12(3,8) + y2(3,8)
 <= 1004112.366649
 C2_2_2_2(3,9): + 1.02 WG(3) + 1.02 BG(3) + 1000000 d12(3,9) + y2(3,9)
 <= 1002619.94174
 C2_2_2_2(3,10): + 1.02 WG(3) + 1.02 BG(3) + 1000000 d12(3,10)
 + y2(3,10) <= 1004112.366649
 C2_2_2_2(3,11): + 1.02 WG(3) + 1.02 BG(3) + 1000000 d12(3,11)
 + y2(3,11) <= 1002619.94174
 C2_2_2_2(3,12): + 1.02 WG(3) + 1.02 BG(3) + 1000000 d12(3,12)
 + y2(3,12) <= 1004112.366649
 C2_2_2_2(3,13): + 1.02 WG(3) + 1.02 BG(3) + 1000000 d12(3,13)
 + y2(3,13) <= 1002619.94174
 C2_2_2_2(3,14): + 1.02 WG(3) + 1.02 BG(3) + 1000000 d12(3,14)
 + y2(3,14) <= 1004112.366649
 C2_2_3_1(0,0): - 1000000 d12(0,0) - y2(0,0) <= -0
 C2_2_3_1(1,1): - 1000000 d12(1,1) - y2(1,1) <= -0
 C2_2_3_1(1,2): - 1000000 d12(1,2) - y2(1,2) <= -0
 C2_2_3_1(2,3): - 1000000 d12(2,3) - y2(2,3) <= -0
 C2_2_3_1(2,4): - 1000000 d12(2,4) - y2(2,4) <= -0
 C2_2_3_1(2,5): - 1000000 d12(2,5) - y2(2,5) <= -0
 C2_2_3_1(2,6): - 1000000 d12(2,6) - y2(2,6) <= -0
 C2_2_3_1(3,7): - 1000000 d12(3,7) - y2(3,7) <= -0
 C2_2_3_1(3,8): - 1000000 d12(3,8) - y2(3,8) <= -0
 C2_2_3_1(3,9): - 1000000 d12(3,9) - y2(3,9) <= -0
 C2_2_3_1(3,10): - 1000000 d12(3,10) - y2(3,10) <= -0
 C2_2_3_1(3,11): - 1000000 d12(3,11) - y2(3,11) <= -0
 C2_2_3_1(3,12): - 1000000 d12(3,12) - y2(3,12) <= -0
 C2_2_3_1(3,13): - 1000000 d12(3,13) - y2(3,13) <= -0
 C2_2_3_1(3,14): - 1000000 d12(3,14) - y2(3,14) <= -0
 C2_2_3_2(0,0): - 1000000 d12(0,0) + y2(0,0) <= -0
 C2_2_3_2(1,1): - 1000000 d12(1,1) + y2(1,1) <= -0
 C2_2_3_2(1,2): - 1000000 d12(1,2) + y2(1,2) <= -0
 C2_2_3_2(2,3): - 1000000 d12(2,3) + y2(2,3) <= -0
 C2_2_3_2(2,4): - 1000000 d12(2,4) + y2(2,4) <= -0
 C2_2_3_2(2,5): - 1000000 d12(2,5) + y2(2,5) <= -0
 C2_2_3_2(2,6): - 1000000 d12(2,6) + y2(2,6) <= -0
 C2_2_3_2(3,7): - 1000000 d12(3,7) + y2(3,7) <= -0
 C2_2_3_2(3,8): - 1000000 d12(3,8) + y2(3,8) <= -0
 C2_2_3_2(3,9): - 1000000 d12(3,9) + y2(3,9) <= -0
 C2_2_3_2(3,10): - 1000000 d12(3,10) + y2(3,10) <= -0
 C2_2_3_2(3,11): - 1000000 d12(3,11) + y2(3,11) <= -0
 C2_2_3_2(3,12): - 1000000 d12(3,12) + y2(3,12) <= -0
 C2_2_3_2(3,13): - 1000000 d12(3,13) + y2(3,13) <= -0
 C2_2_3_2(3,14): - 1000000 d12(3,14) + y2(3,14) <= -0
 C3_1(1,1): + 1.11111111111111 y1(1,1) - 0.95 y2(1,1) + STE(1,1)
 - STE(0,0) = -1260
 C3_1(1,2): + 1.11111111111111 y1(1,2) - 0.95 y2(1,2) - STE(0,0)
 + STE(1,2) = -1260
 C3_1(2,3): + 1.11111111111111 y1(2,3) - 0.95 y2(2,3) - STE(1,1)
 + STE(2,3) = -1260
 C3_1(2,4): + 1.11111111111111 y1(2,4) - 0.95 y2(2,4) - STE(1,1)
 + STE(2,4) = -1260
 C3_1(2,5): + 1.11111111111111 y1(2,5) - 0.95 y2(2,5) - STE(1,2)
 + STE(2,5) = -1260
 C3_1(2,6): + 1.11111111111111 y1(2,6) - 0.95 y2(2,6) - STE(1,2)
 + STE(2,6) = -1260
 C3_1(3,7): + 1.11111111111111 y1(3,7) - 0.95 y2(3,7) - STE(2,3)
 + STE(3,7) = -1260
 C3_1(3,8): + 1.11111111111111 y1(3,8) - 0.95 y2(3,8) - STE(2,3)
 + STE(3,8) = -1260
 C3_1(3,9): + 1.11111111111111 y1(3,9) - 0.95 y2(3,9) - STE(2,4)
 + STE(3,9) = -1260
 C3_1(3,10): + 1.11111111111111 y1(3,10) - 0.95 y2(3,10) - STE(2,4)
 + STE(3,10) = -1260
 C3_1(3,11): + 1.11111111111111 y1(3,11) - 0.95 y2(3,11) - STE(2,5)
 + STE(3,11) = -1260
 C3_1(3,12): + 1.11111111111111 y1(3,12) - 0.95 y2(3,12) - STE(2,5)
 + STE(3,12) = -1260
 C3_1(3,13): + 1.11111111111111 y1(3,13) - 0.95 y2(3,13) - STE(2,6)
 + STE(3,13) = -1260
 C3_1(3,14): + 1.11111111111111 y1(3,14) - 0.95 y2(3,14) - STE(2,6)
 + STE(3,14) = -1260
 C3_2: + STE(0,0) = 15750
 C4_1_1(0,0): + 1000000 d21(0,0) + STE(0,0) <= 1001575
 C4_1_1(1,1): + 1000000 d21(1,1) + STE(1,1) <= 1001575
 C4_1_1(1,2): + 1000000 d21(1,2) + STE(1,2) <= 1001575
 C4_1_1(2,3): + 1000000 d21(2,3) + STE(2,3) <= 1001575
 C4_1_1(2,4): + 1000000 d21(2,4) + STE(2,4) <= 1001575
 C4_1_1(2,5): + 1000000 d21(2,5) + STE(2,5) <= 1001575
 C4_1_1(2,6): + 1000000 d21(2,6) + STE(2,6) <= 1001575
 C4_1_1(3,7): + 1000000 d21(3,7) + STE(3,7) <= 1001575
 C4_1_1(3,8): + 1000000 d21(3,8) + STE(3,8) <= 1001575
 C4_1_1(3,9): + 1000000 d21(3,9) + STE(3,9) <= 1001575
 C4_1_1(3,10): + 1000000 d21(3,10) + STE(3,10) <= 1001575
 C4_1_1(3,11): + 1000000 d21(3,11) + STE(3,11) <= 1001575
 C4_1_1(3,12): + 1000000 d21(3,12) + STE(3,12) <= 1001575
 C4_1_1(3,13): + 1000000 d21(3,13) + STE(3,13) <= 1001575
 C4_1_1(3,14): + 1000000 d21(3,14) + STE(3,14) <= 1001575
 C4_1_2(0,0): - 1000000 d21(0,0) - STE(0,0) <= -1575
 C4_1_2(1,1): - 1000000 d21(1,1) - STE(1,1) <= -1575
 C4_1_2(1,2): - 1000000 d21(1,2) - STE(1,2) <= -1575
 C4_1_2(2,3): - 1000000 d21(2,3) - STE(2,3) <= -1575
 C4_1_2(2,4): - 1000000 d21(2,4) - STE(2,4) <= -1575
 C4_1_2(2,5): - 1000000 d21(2,5) - STE(2,5) <= -1575
 C4_1_2(2,6): - 1000000 d21(2,6) - STE(2,6) <= -1575
 C4_1_2(3,7): - 1000000 d21(3,7) - STE(3,7) <= -1575
 C4_1_2(3,8): - 1000000 d21(3,8) - STE(3,8) <= -1575
 C4_1_2(3,9): - 1000000 d21(3,9) - STE(3,9) <= -1575
 C4_1_2(3,10): - 1000000 d21(3,10) - STE(3,10) <= -1575
 C4_1_2(3,11): - 1000000 d21(3,11) - STE(3,11) <= -1575
 C4_1_2(3,12): - 1000000 d21(3,12) - STE(3,12) <= -1575
 C4_1_2(3,13): - 1000000 d21(3,13) - STE(3,13) <= -1575
 C4_1_2(3,14): - 1000000 d21(3,14) - STE(3,14) <= -1575
 C4_2_1(0,0): + 1000000 d22(0,0) - STE(0,0) <= 970075
 C4_2_1(1,1): + 1000000 d22(1,1) - STE(1,1) <= 970075
 C4_2_1(1,2): + 1000000 d22(1,2) - STE(1,2) <= 970075
 C4_2_1(2,3): + 1000000 d22(2,3) - STE(2,3) <= 970075
 C4_2_1(2,4): + 1000000 d22(2,4) - STE(2,4) <= 970075
 C4_2_1(2,5): + 1000000 d22(2,5) - STE(2,5) <= 970075
 C4_2_1(2,6): + 1000000 d22(2,6) - STE(2,6) <= 970075
 C4_2_1(3,7): + 1000000 d22(3,7) - STE(3,7) <= 970075
 C4_2_1(3,8): + 1000000 d22(3,8) - STE(3,8) <= 970075
 C4_2_1(3,9): + 1000000 d22(3,9) - STE(3,9) <= 970075
 C4_2_1(3,10): + 1000000 d22(3,10) - STE(3,10) <= 970075
 C4_2_1(3,11): + 1000000 d22(3,11) - STE(3,11) <= 970075
 C4_2_1(3,12): + 1000000 d22(3,12) - STE(3,12) <= 970075
 C4_2_1(3,13): + 1000000 d22(3,13) - STE(3,13) <= 970075
 C4_2_1(3,14): + 1000000 d22(3,14) - STE(3,14) <= 970075
 C4_2_2(0,0): - 1000000 d22(0,0) + STE(0,0) <= 29925
 C4_2_2(1,1): - 1000000 d22(1,1) + STE(1,1) <= 29925
 C4_2_2(1,2): - 1000000 d22(1,2) + STE(1,2) <= 29925
 C4_2_2(2,3): - 1000000 d22(2,3) + STE(2,3) <= 29925
 C4_2_2(2,4): - 1000000 d22(2,4) + STE(2,4) <= 29925
 C4_2_2(2,5): - 1000000 d22(2,5) + STE(2,5) <= 29925
 C4_2_2(2,6): - 1000000 d22(2,6) + STE(2,6) <= 29925
 C4_2_2(3,7): - 1000000 d22(3,7) + STE(3,7) <= 29925
 C4_2_2(3,8): - 1000000 d22(3,8) + STE(3,8) <= 29925
 C4_2_2(3,9): - 1000000 d22(3,9) + STE(3,9) <= 29925
 C4_2_2(3,10): - 1000000 d22(3,10) + STE(3,10) <= 29925
 C4_2_2(3,11): - 1000000 d22(3,11) + STE(3,11) <= 29925
 C4_2_2(3,12): - 1000000 d22(3,12) + STE(3,12) <= 29925
 C4_2_2(3,13): - 1000000 d22(3,13) + STE(3,13) <= 29925
 C4_2_2(3,14): - 1000000 d22(3,14) + STE(3,14) <= 29925
 C5_1(0): + d21(0,0) <= 0.5
 C5_1(1): + 0.578947 d21(1,1) + 0.421053 d21(1,2) <= 0.5
 C5_1(2): + 0.323308 d21(2,3) + 0.255639 d21(2,4) + 0.210526 d21(2,5)
 + 0.210526 d21(2,6) <= 0.5
 C5_1(3): + 0.18797 d21(3,7) + 0.135338 d21(3,8) + 0.120301 d21(3,9)
 + 0.135338 d21(3,10) + 0.120301 d21(3,11) + 0.090226 d21(3,12)
 + 0.105263 d21(3,13) + 0.105263 d21(3,14) <= 0.5
 C5_2(0): + d22(0,0) <= 0.5
 C5_2(1): + 0.578947 d22(1,1) + 0.421053 d22(1,2) <= 0.5
 C5_2(2): + 0.323308 d22(2,3) + 0.255639 d22(2,4) + 0.210526 d22(2,5)
 + 0.210526 d22(2,6) <= 0.5
 C5_2(3): + 0.18797 d22(3,7) + 0.135338 d22(3,8) + 0.120301 d22(3,9)
 + 0.135338 d22(3,10) + 0.120301 d22(3,11) + 0.090226 d22(3,12)
 + 0.105263 d22(3,13) + 0.105263 d22(3,14) <= 0.5

Bounds
 0 <= d11(0,0) <= 1
 0 <= d11(1,1) <= 1
 0 <= d11(1,2) <= 1
 0 <= d11(2,3) <= 1
 0 <= d11(2,4) <= 1
 0 <= d11(2,5) <= 1
 0 <= d11(2,6) <= 1
 0 <= d11(3,7) <= 1
 0 <= d11(3,8) <= 1
 0 <= d11(3,9) <= 1
 0 <= d11(3,10) <= 1
 0 <= d11(3,11) <= 1
 0 <= d11(3,12) <= 1
 0 <= d11(3,13) <= 1
 0 <= d11(3,14) <= 1
 0 <= d12(0,0) <= 1
 0 <= d12(1,1) <= 1
 0 <= d12(1,2) <= 1
 0 <= d12(2,3) <= 1
 0 <= d12(2,4) <= 1
 0 <= d12(2,5) <= 1
 0 <= d12(2,6) <= 1
 0 <= d12(3,7) <= 1
 0 <= d12(3,8) <= 1
 0 <= d12(3,9) <= 1
 0 <= d12(3,10) <= 1
 0 <= d12(3,11) <= 1
 0 <= d12(3,12) <= 1
 0 <= d12(3,13) <= 1
 0 <= d12(3,14) <= 1
 0 <= d21(0,0) <= 1
 0 <= d21(1,1) <= 1
 0 <= d21(1,2) <= 1
 0 <= d21(2,3) <= 1
 0 <= d21(2,4) <= 1
 0 <= d21(2,5) <= 1
 0 <= d21(2,6) <= 1
 0 <= d21(3,7) <= 1
 0 <= d21(3,8) <= 1
 0 <= d21(3,9) <= 1
 0 <= d21(3,10) <= 1
 0 <= d21(3,11) <= 1
 0 <= d21(3,12) <= 1
 0 <= d21(3,13) <= 1
 0 <= d21(3,14) <= 1
 0 <= d22(0,0) <= 1
 0 <= d22(1,1) <= 1
 0 <= d22(1,2) <= 1
 0 <= d22(2,3) <= 1
 0 <= d22(2,4) <= 1
 0 <= d22(2,5) <= 1
 0 <= d22(2,6) <= 1
 0 <= d22(3,7) <= 1
 0 <= d22(3,8) <= 1
 0 <= d22(3,9) <= 1
 0 <= d22(3,10) <= 1
 0 <= d22(3,11) <= 1
 0 <= d22(3,12) <= 1
 0 <= d22(3,13) <= 1
 0 <= d22(3,14) <= 1
 STE(1,1) free
 STE(0,0) free
 STE(1,2) free
 STE(2,3) free
 STE(2,4) free
 STE(2,5) free
 STE(2,6) free
 STE(3,7) free
 STE(3,8) free
 STE(3,9) free
 STE(3,10) free
 STE(3,11) free
 STE(3,12) free
 STE(3,13) free
 STE(3,14) free

Generals
 d11(0,0)
 d11(1,1)
 d11(1,2)
 d11(2,3)
 d11(2,4)
 d11(2,5)
 d11(2,6)
 d11(3,7)
 d11(3,8)
 d11(3,9)
 d11(3,10)
 d11(3,11)
 d11(3,12)
 d11(3,13)
 d11(3,14)
 d12(0,0)
 d12(1,1)
 d12(1,2)
 d12(2,3)
 d12(2,4)
 d12(2,5)
 d12(2,6)
 d12(3,7)
 d12(3,8)
 d12(3,9)
 d12(3,10)
 d12(3,11)
 d12(3,12)
 d12(3,13)
 d12(3,14)
 d21(0,0)
 d21(1,1)
 d21(1,2)
 d21(2,3)
 d21(2,4)
 d21(2,5)
 d21(2,6)
 d21(3,7)
 d21(3,8)
 d21(3,9)
 d21(3,10)
 d21(3,11)
 d21(3,12)
 d21(3,13)
 d21(3,14)
 d22(0,0)
 d22(1,1)
 d22(1,2)
 d22(2,3)
 d22(2,4)
 d22(2,5)
 d22(2,6)
 d22(3,7)
 d22(3,8)
 d22(3,9)
 d22(3,10)
 d22(3,11)
 d22(3,12)
 d22(3,13)
 d22(3,14)

End
