water_flow/jikken/makedata/WFModel_C4_T3_M0.05_R1.00.sol
solution status: optimal solution found
objective value:                     190895.409479594
d11(0,0)                                            1 	(obj:0)
d11(1,1)                                            1 	(obj:0)
d11(1,2)                                            1 	(obj:0)
d11(2,3)                                            1 	(obj:0)
d11(2,4)                                            1 	(obj:0)
d11(2,5)                                            1 	(obj:0)
d11(2,6)                                            1 	(obj:0)
d11(3,7)                                            1 	(obj:0)
d11(3,11)                                           1 	(obj:0)
d11(3,13)                                           1 	(obj:0)
d12(3,8)                                            1 	(obj:0)
d12(3,10)                                           1 	(obj:0)
d12(3,12)                                           1 	(obj:0)
d12(3,14)                                           1 	(obj:0)
d21(2,3)                                            1 	(obj:0)
d21(3,7)                                            1 	(obj:0)
d21(3,8)                                            1 	(obj:0)
WB(2)                                3315.65537776224 	(obj:0)
y2(3,8)                              1385.48851144904 	(obj:0)
y2(3,10)                             1385.48851144895 	(obj:0)
y2(3,12)                             1385.48851144897 	(obj:0)
y2(3,14)                             1385.48851144897 	(obj:0)
STE(1,1)                             4094.99999999955 	(obj:0)
STE(0,0)                                        15750 	(obj:0)
STE(1,2)                             5753.24989888837 	(obj:0)
STE(2,3)                             1176.75010111052 	(obj:0)
STE(2,4)                             2834.99999999934 	(obj:0)
STE(2,5)                             2834.99999999934 	(obj:0)
STE(2,6)                             4493.24989888815 	(obj:0)
STE(3,7)                            -83.2498988894791 	(obj:0)
STE(3,8)                             1232.96418698711 	(obj:0)
STE(3,9)                             1574.99999999934 	(obj:0)
STE(3,10)                            2891.21408587584 	(obj:0)
STE(3,11)                            1574.99999999934 	(obj:0)
STE(3,12)                            2891.21408587586 	(obj:0)
STE(3,13)                            3233.24989888815 	(obj:0)
STE(3,14)                            4549.46398476467 	(obj:0)
AVE(2)                               3315.65537776224 	(obj:0)
WB(3)                                3315.65799770399 	(obj:0)
y1(1,1)                               9355.5000000004 	(obj:0)
y1(1,2)                              7863.07509100047 	(obj:0)
y1(2,3)                              1492.42490900013 	(obj:0)
y1(2,5)                              1492.42490900013 	(obj:0)
AVE(3)                               3315.65799770399 	(obj:0)
WB(1)                                3248.33172520918 	(obj:0)
BG(1)                                12219.8385102045 	(obj:10)
BG(2)                                4196.29249897976 	(obj:10)
BG(3)                                2673.40993877575 	(obj:10)
AVE(1)                               3248.33172520918 	(obj:0)
